c description: Random 3-CNF over 16 variables and 80 clauses
p cnf 16 80
3 -11 -13 0
-10 12 16 0
5 11 -15 0
-1 -10 -16 0
-7 8 -10 0
-8 -9 -14 0
4 6 9 0
-6 11 -12 0
-11 -12 -16 0
-4 -5 10 0
-3 -10 12 0
7 -8 10 0
-7 -8 -9 0
-9 -12 -14 0
-5 8 16 0
-9 -10 -14 0
1 8 -13 0
-2 -3 -8 0
-10 11 12 0
1 -2 -6 0
1 -11 14 0
-3 6 14 0
-3 8 13 0
-1 -8 -15 0
-6 11 -15 0
-4 7 10 0
-8 9 13 0
-3 11 13 0
5 14 15 0
7 -8 -10 0
-1 -12 -14 0
1 12 -13 0
-10 -11 -14 0
-2 10 -15 0
-2 3 12 0
-2 -5 -10 0
7 11 -13 0
7 -10 15 0
-5 8 10 0
1 7 13 0
3 6 -7 0
-3 4 7 0
1 3 -9 0
1 5 -9 0
-6 -12 -16 0
1 3 -16 0
1 -3 14 0
-1 2 -3 0
9 -10 13 0
-5 9 -13 0
3 -10 11 0
1 6 -7 0
-2 -13 15 0
2 5 -12 0
-1 5 -15 0
-7 -10 -11 0
-7 -14 -15 0
-6 9 -15 0
5 9 14 0
3 -5 6 0
4 -5 -12 0
9 -15 -16 0
5 7 -12 0
3 4 11 0
8 10 11 0
-2 -12 16 0
1 7 -16 0
3 -9 -12 0
-8 -14 -16 0
-14 -15 16 0
-7 9 11 0
-11 -12 16 0
2 -5 9 0
3 -9 -14 0
-1 11 -14 0
4 -10 -15 0
-2 -5 -14 0
4 5 14 0
-2 -4 10 0
-4 5 -14 0